p edge 40 76 5
v 8 5 6 7 19 22 24 34 38
v 4 2 26 29 35
v 7 1 4 12 17 36 37 40
v 11 3 10 14 15 16 18 20 28 31 32 39
v 10 8 9 11 13 21 23 25 27 30 33
e 1 8
e 1 13
e 1 18
e 1 26
e 1 29
e 1 37
e 2 9
e 2 10
e 2 15
e 3 4
e 3 5
e 3 16
e 3 27
e 4 6
e 4 26
e 5 13
e 5 27
e 5 29
e 5 33
e 6 12
e 6 19
e 6 20
e 6 24
e 7 11
e 7 12
e 7 20
e 7 21
e 7 24
e 8 17
e 9 10
e 9 27
e 10 11
e 10 12
e 10 27
e 10 28
e 10 29
e 10 36
e 11 25
e 11 31
e 11 35
e 12 15
e 12 27
e 12 31
e 12 36
e 13 24
e 13 25
e 13 29
e 15 23
e 15 30
e 16 25
e 16 32
e 16 33
e 16 37
e 17 26
e 18 20
e 18 21
e 18 24
e 19 20
e 19 30
e 20 34
e 20 36
e 21 37
e 22 30
e 23 29
e 23 30
e 24 32
e 25 36
e 25 40
e 26 37
e 28 33
e 28 39
e 28 40
e 29 38
e 30 32
e 31 33
e 32 40
